41051 37881 
40631 38710 
40695 38492 
40155 39324 
39329 39977 
40607 38758 
40466 38940 
39940 39421 
39860 39722 
40055 39390 
39516 39908 
40062 39383 
40679 38520 
40484 38852 
39523 39901 
40282 39191 
40162 39317 
39610 39776 
39585 39782 
39316 40066 
38946 40366 
38327 40770 
39145 40080 
38469 40682 
38677 40650 
38235 40794 
38443 40762 
38854 40451 
39393 39933 
39087 40352 
40069 39331 
38879 40384 
39530 39849 
40195 39207 
40169 39265 
40329 39004 
40357 38976 
40833 38362 
41217 37773 
41474 37085 
41615 36903 
41050 38255 
40511 38773 
40498 38794 
40895 38329 
40513 38759 
41062 37847 
40795 38395 
41315 37409 
41470 37335 
41395 37396 
41227 37742 
41142 37834 
40786 38469 
40310 39083 
39888 39614 
40076 39325 
39935 39507 
